NAME : cluster_netgen
COMMENT : cl=5
TYPE : TSP
DIMENSION : 50
EDGE_WEIGHT_TYPE : EUC_2D
NODE_COORD_SECTION
1 464997 622908
2 457913 739626
3 430438 572430
4 474821 660652
5 405273 674256
6 429435 547101
7 586901 660908
8 428507 651776
9 490623 719632
10 427125 668996
11 218569 473779
12 213276 538587
13 59140 580393
14 130328 505785
15 97514 525758
16 50140 590552
17 94762 547582
18 125746 500169
19 176462 498661
20 151945 455772
21 994930 352987
22 864927 321919
23 974217 279681
24 928525 302062
25 898038 294491
26 906300 302169
27 941657 270719
28 921751 329975
29 999641 377668
30 873084 267137
31 331975 131264
32 295097 187757
33 332338 69694
34 422277 212340
35 319083 43484
36 239359 63486
37 289606 3870
38 366521 147325
39 343677 102788
40 239160 102539
41 844086 861571
42 738044 889501
43 729873 852349
44 881489 836002
45 765952 918503
46 770029 894570
47 827703 817895
48 831697 969003
49 753028 816004
50 736648 779266

EOF
